33D32945 STP File, STP Format Version 1.0

SECTION Comments
Name "cube_n15_d2_s31"
Problem "Euclidean Steiner Tree Problem"
Remark "Generated with STPGenerator. 2 dimensions."
END

SECTION Graph
Nodes 15
END

SECTION Coordinates
DD 0 0.5921190123 0.7871168474
DD 1 0.8626960571 0.4022940902
DD 2 0.4331044440 0.3224785879
DD 3 0.1665347033 0.6197118892
DD 4 0.4428926201 0.5949672445
DD 5 0.2624237846 0.4864085733
DD 6 0.4051467089 0.0680107870
DD 7 0.7012902786 0.2066657628
DD 8 0.0859796964 0.6465744323
DD 9 0.9411502084 0.4651792224
DD 10 0.1887814688 0.3742742359
DD 11 0.7257872944 0.9398560226
DD 12 0.0504484792 0.7854848689
DD 13 0.4252954514 0.4809464605
DD 14 0.2813506742 0.1364504407
END
